29505.61 0
0 103 62 192 5 48 89 148 117 9 128 83 136 23 37 108 177 181 106 98 125 160 35 131 123 58 73 20 71 145 111 46 139 31 10 16 14 152 100 184 44 90 126 97 22 114 112 178 59 61 163 119 154 141 34 85 26 11 19 146 130 166 76 164 179 176 57 92 27 66 129 167 68 134 101 80 24 60 50 86 56 6 8 105 153 174 54 82 121 33 107 116 124 42 189 133 2 45 28 13 197 157 40 70 99 187 47 127 138 137 170 29 171 182 161 84 67 72 122 43 49 190 193 194 149 38 185 95 155 51 77 104 4 142 36 32 75 12 94 81 175 169 1 63 39 120 53 188 140 158 102 172 88 168 41 30 79 173 156 135 199 55 132 144 96 180 196 3 64 65 195 25 186 151 110 183 147 69 21 15 143 87 93 150 162 115 17 78 52 165 18 118 198 191 109 74 113 91 7 159